\ Model master_model
\ LP format - for model browsing. Use MPS format to capture full model detail.
Minimize
  _Theta
Subject To
 R0: _f[290970112004035,Do_nothing] + _f[290970112004035,R1]
   + _f[290970112004035,R2] + _f[290970112004035,R3] = 1
 R1: _f[290970112004038,Do_nothing] + _f[290970112004038,R1]
   + _f[290970112004038,R2] + _f[290970112004038,R3] = 1
 R2: _f[290970107002023,Do_nothing] + _f[290970107002023,R1]
   + _f[290970107002023,R2] + _f[290970107002023,R3] = 1
 R3: _f[290970107002022,Do_nothing] + _f[290970107002022,R1]
   + _f[290970107002022,R2] + _f[290970107002022,R3] = 1
 R4: _f[291450205022018,Do_nothing] + _f[291450205022018,R1]
   + _f[291450205022018,R2] + _f[291450205022018,R3] = 1
 R5: _f[290970101002004,Do_nothing] + _f[290970101002004,R1]
   + _f[290970101002004,R2] + _f[290970101002004,R3] = 1
 R6: _f[290970103001034,Do_nothing] + _f[290970103001034,R1]
   + _f[290970103001034,R2] + _f[290970103001034,R3] = 1
 R7: _f[290970101004032,Do_nothing] + _f[290970101004032,R1]
   + _f[290970101004032,R2] + _f[290970101004032,R3] = 1
 R8: _f[290970106006020,Do_nothing] + _f[290970106006020,R1]
   + _f[290970106006020,R2] + _f[290970106006020,R3] = 1
 R9: _f[290970104001042,Do_nothing] + _f[290970104001042,R1]
   + _f[290970104001042,R2] + _f[290970104001042,R3] = 1
 R10: _Theta >= 0
 R11: 2446 _f[290970112004035,R1] + 3074 _f[290970112004035,R2]
   + 5519 _f[290970112004035,R3] + 3482 _f[290970112004038,R1]
   + 4377 _f[290970112004038,R2] + 7856 _f[290970112004038,R3]
   + 6787 _f[290970107002023,R1] + 8529 _f[290970107002023,R2]
   + 15310 _f[290970107002023,R3] + 5860 _f[290970107002022,R1]
   + 7364 _f[290970107002022,R2] + 13219 _f[290970107002022,R3]
   + 5038 _f[291450205022018,R1] + 6331 _f[291450205022018,R2]
   + 11364 _f[291450205022018,R3] + 13306 _f[290970101002004,R1]
   + 16723 _f[290970101002004,R2] + 30018 _f[290970101002004,R3]
   + 9087 _f[290970103001034,R1] + 11420 _f[290970103001034,R2]
   + 20499 _f[290970103001034,R3] + 6418 _f[290970101004032,R1]
   + 8066 _f[290970101004032,R2] + 14479 _f[290970101004032,R3]
   + 8303 _f[290970106006020,R1] + 10435 _f[290970106006020,R2]
   + 18731 _f[290970106006020,R3] + 4110 _f[290970104001042,R1]
   + 5165 _f[290970104001042,R2] + 9272 _f[290970104001042,R3]
   + 273257 _r0[290970112004035,Do_nothing,Recover]
   + 273175 _r0[290970112004035,R1,Recover]
   + 195993 _r0[290970112004035,R2,Recover]
   + 119326 _r0[290970112004035,R3,Recover]
   + 248875 _r0[290970112004038,Do_nothing,Recover]
   + 248801 _r0[290970112004038,R1,Recover]
   + 178505 _r0[290970112004038,R2,Recover]
   + 108679 _r0[290970112004038,R3,Recover]
   + 466694 _r0[290970107002023,Do_nothing,Recover]
   + 466555 _r0[290970107002023,R1,Recover]
   + 334735 _r0[290970107002023,R2,Recover]
   + 203796 _r0[290970107002023,R3,Recover]
   + 459751 _r0[290970107002022,Do_nothing,Recover]
   + 459614 _r0[290970107002022,R1,Recover]
   + 329755 _r0[290970107002022,R2,Recover]
   + 200764 _r0[290970107002022,R3,Recover]
   + 2.807261e+06 _r0[291450205022018,Do_nothing,Recover]
   + 2.806424e+06 _r0[291450205022018,R1,Recover]
   + 2.013498e+06 _r0[291450205022018,R2,Recover]
   + 1.225874e+06 _r0[291450205022018,R3,Recover]
   + 228902 _r0[290970101002004,Do_nothing,Recover]
   + 228834 _r0[290970101002004,R1,Recover]
   + 164179 _r0[290970101002004,R2,Recover]
   + 99957 _r0[290970101002004,R3,Recover]
   + 500834 _r0[290970103001034,Do_nothing,Recover]
   + 500684 _r0[290970103001034,R1,Recover]
   + 359221 _r0[290970103001034,R2,Recover]
   + 218704 _r0[290970103001034,R3,Recover]
   + 86636 _r0[290970101004032,Do_nothing,Recover]
   + 86610 _r0[290970101004032,R1,Recover]
   + 62139 _r0[290970101004032,R2,Recover]
   + 37832 _r0[290970101004032,R3,Recover]
   + 485418 _r0[290970106006020,Do_nothing,Recover]
   + 485273 _r0[290970106006020,R1,Recover]
   + 348164 _r0[290970106006020,R2,Recover]
   + 211972 _r0[290970106006020,R3,Recover]
   + 291626 _r0[290970104001042,Do_nothing,Recover]
   + 291539 _r0[290970104001042,R1,Recover]
   + 209168 _r0[290970104001042,R2,Recover]
   + 127347 _r0[290970104001042,R3,Recover] <= 3e+07
 R12: - _f[290970112004035,Do_nothing]
   + _r0[290970112004035,Do_nothing,Do_nothing]
   + _r0[290970112004035,Do_nothing,Recover] = 0
 R13: - _f[290970112004035,R1] + _r0[290970112004035,R1,Do_nothing]
   + _r0[290970112004035,R1,Recover] = 0
 R14: - _f[290970112004035,R2] + _r0[290970112004035,R2,Do_nothing]
   + _r0[290970112004035,R2,Recover] = 0
 R15: - _f[290970112004035,R3] + _r0[290970112004035,R3,Do_nothing]
   + _r0[290970112004035,R3,Recover] = 0
 R16: - _f[290970112004038,Do_nothing]
   + _r0[290970112004038,Do_nothing,Do_nothing]
   + _r0[290970112004038,Do_nothing,Recover] = 0
 R17: - _f[290970112004038,R1] + _r0[290970112004038,R1,Do_nothing]
   + _r0[290970112004038,R1,Recover] = 0
 R18: - _f[290970112004038,R2] + _r0[290970112004038,R2,Do_nothing]
   + _r0[290970112004038,R2,Recover] = 0
 R19: - _f[290970112004038,R3] + _r0[290970112004038,R3,Do_nothing]
   + _r0[290970112004038,R3,Recover] = 0
 R20: - _f[290970107002023,Do_nothing]
   + _r0[290970107002023,Do_nothing,Do_nothing]
   + _r0[290970107002023,Do_nothing,Recover] = 0
 R21: - _f[290970107002023,R1] + _r0[290970107002023,R1,Do_nothing]
   + _r0[290970107002023,R1,Recover] = 0
 R22: - _f[290970107002023,R2] + _r0[290970107002023,R2,Do_nothing]
   + _r0[290970107002023,R2,Recover] = 0
 R23: - _f[290970107002023,R3] + _r0[290970107002023,R3,Do_nothing]
   + _r0[290970107002023,R3,Recover] = 0
 R24: - _f[290970107002022,Do_nothing]
   + _r0[290970107002022,Do_nothing,Do_nothing]
   + _r0[290970107002022,Do_nothing,Recover] = 0
 R25: - _f[290970107002022,R1] + _r0[290970107002022,R1,Do_nothing]
   + _r0[290970107002022,R1,Recover] = 0
 R26: - _f[290970107002022,R2] + _r0[290970107002022,R2,Do_nothing]
   + _r0[290970107002022,R2,Recover] = 0
 R27: - _f[290970107002022,R3] + _r0[290970107002022,R3,Do_nothing]
   + _r0[290970107002022,R3,Recover] = 0
 R28: - _f[291450205022018,Do_nothing]
   + _r0[291450205022018,Do_nothing,Do_nothing]
   + _r0[291450205022018,Do_nothing,Recover] = 0
 R29: - _f[291450205022018,R1] + _r0[291450205022018,R1,Do_nothing]
   + _r0[291450205022018,R1,Recover] = 0
 R30: - _f[291450205022018,R2] + _r0[291450205022018,R2,Do_nothing]
   + _r0[291450205022018,R2,Recover] = 0
 R31: - _f[291450205022018,R3] + _r0[291450205022018,R3,Do_nothing]
   + _r0[291450205022018,R3,Recover] = 0
 R32: - _f[290970101002004,Do_nothing]
   + _r0[290970101002004,Do_nothing,Do_nothing]
   + _r0[290970101002004,Do_nothing,Recover] = 0
 R33: - _f[290970101002004,R1] + _r0[290970101002004,R1,Do_nothing]
   + _r0[290970101002004,R1,Recover] = 0
 R34: - _f[290970101002004,R2] + _r0[290970101002004,R2,Do_nothing]
   + _r0[290970101002004,R2,Recover] = 0
 R35: - _f[290970101002004,R3] + _r0[290970101002004,R3,Do_nothing]
   + _r0[290970101002004,R3,Recover] = 0
 R36: - _f[290970103001034,Do_nothing]
   + _r0[290970103001034,Do_nothing,Do_nothing]
   + _r0[290970103001034,Do_nothing,Recover] = 0
 R37: - _f[290970103001034,R1] + _r0[290970103001034,R1,Do_nothing]
   + _r0[290970103001034,R1,Recover] = 0
 R38: - _f[290970103001034,R2] + _r0[290970103001034,R2,Do_nothing]
   + _r0[290970103001034,R2,Recover] = 0
 R39: - _f[290970103001034,R3] + _r0[290970103001034,R3,Do_nothing]
   + _r0[290970103001034,R3,Recover] = 0
 R40: - _f[290970101004032,Do_nothing]
   + _r0[290970101004032,Do_nothing,Do_nothing]
   + _r0[290970101004032,Do_nothing,Recover] = 0
 R41: - _f[290970101004032,R1] + _r0[290970101004032,R1,Do_nothing]
   + _r0[290970101004032,R1,Recover] = 0
 R42: - _f[290970101004032,R2] + _r0[290970101004032,R2,Do_nothing]
   + _r0[290970101004032,R2,Recover] = 0
 R43: - _f[290970101004032,R3] + _r0[290970101004032,R3,Do_nothing]
   + _r0[290970101004032,R3,Recover] = 0
 R44: - _f[290970106006020,Do_nothing]
   + _r0[290970106006020,Do_nothing,Do_nothing]
   + _r0[290970106006020,Do_nothing,Recover] = 0
 R45: - _f[290970106006020,R1] + _r0[290970106006020,R1,Do_nothing]
   + _r0[290970106006020,R1,Recover] = 0
 R46: - _f[290970106006020,R2] + _r0[290970106006020,R2,Do_nothing]
   + _r0[290970106006020,R2,Recover] = 0
 R47: - _f[290970106006020,R3] + _r0[290970106006020,R3,Do_nothing]
   + _r0[290970106006020,R3,Recover] = 0
 R48: - _f[290970104001042,Do_nothing]
   + _r0[290970104001042,Do_nothing,Do_nothing]
   + _r0[290970104001042,Do_nothing,Recover] = 0
 R49: - _f[290970104001042,R1] + _r0[290970104001042,R1,Do_nothing]
   + _r0[290970104001042,R1,Recover] = 0
 R50: - _f[290970104001042,R2] + _r0[290970104001042,R2,Do_nothing]
   + _r0[290970104001042,R2,Recover] = 0
 R51: - _f[290970104001042,R3] + _r0[290970104001042,R3,Do_nothing]
   + _r0[290970104001042,R3,Recover] = 0
Bounds
 _Theta free
Binaries
 _f[290970112004035,Do_nothing] _f[290970112004035,R1]
 _f[290970112004035,R2] _f[290970112004035,R3]
 _f[290970112004038,Do_nothing] _f[290970112004038,R1]
 _f[290970112004038,R2] _f[290970112004038,R3]
 _f[290970107002023,Do_nothing] _f[290970107002023,R1]
 _f[290970107002023,R2] _f[290970107002023,R3]
 _f[290970107002022,Do_nothing] _f[290970107002022,R1]
 _f[290970107002022,R2] _f[290970107002022,R3]
 _f[291450205022018,Do_nothing] _f[291450205022018,R1]
 _f[291450205022018,R2] _f[291450205022018,R3]
 _f[290970101002004,Do_nothing] _f[290970101002004,R1]
 _f[290970101002004,R2] _f[290970101002004,R3]
 _f[290970103001034,Do_nothing] _f[290970103001034,R1]
 _f[290970103001034,R2] _f[290970103001034,R3]
 _f[290970101004032,Do_nothing] _f[290970101004032,R1]
 _f[290970101004032,R2] _f[290970101004032,R3]
 _f[290970106006020,Do_nothing] _f[290970106006020,R1]
 _f[290970106006020,R2] _f[290970106006020,R3]
 _f[290970104001042,Do_nothing] _f[290970104001042,R1]
 _f[290970104001042,R2] _f[290970104001042,R3]
 _r0[290970112004035,Do_nothing,Do_nothing]
 _r0[290970112004035,Do_nothing,Recover] _r0[290970112004035,R1,Do_nothing]
 _r0[290970112004035,R1,Recover] _r0[290970112004035,R2,Do_nothing]
 _r0[290970112004035,R2,Recover] _r0[290970112004035,R3,Do_nothing]
 _r0[290970112004035,R3,Recover] _r0[290970112004038,Do_nothing,Do_nothing]
 _r0[290970112004038,Do_nothing,Recover] _r0[290970112004038,R1,Do_nothing]
 _r0[290970112004038,R1,Recover] _r0[290970112004038,R2,Do_nothing]
 _r0[290970112004038,R2,Recover] _r0[290970112004038,R3,Do_nothing]
 _r0[290970112004038,R3,Recover] _r0[290970107002023,Do_nothing,Do_nothing]
 _r0[290970107002023,Do_nothing,Recover] _r0[290970107002023,R1,Do_nothing]
 _r0[290970107002023,R1,Recover] _r0[290970107002023,R2,Do_nothing]
 _r0[290970107002023,R2,Recover] _r0[290970107002023,R3,Do_nothing]
 _r0[290970107002023,R3,Recover] _r0[290970107002022,Do_nothing,Do_nothing]
 _r0[290970107002022,Do_nothing,Recover] _r0[290970107002022,R1,Do_nothing]
 _r0[290970107002022,R1,Recover] _r0[290970107002022,R2,Do_nothing]
 _r0[290970107002022,R2,Recover] _r0[290970107002022,R3,Do_nothing]
 _r0[290970107002022,R3,Recover] _r0[291450205022018,Do_nothing,Do_nothing]
 _r0[291450205022018,Do_nothing,Recover] _r0[291450205022018,R1,Do_nothing]
 _r0[291450205022018,R1,Recover] _r0[291450205022018,R2,Do_nothing]
 _r0[291450205022018,R2,Recover] _r0[291450205022018,R3,Do_nothing]
 _r0[291450205022018,R3,Recover] _r0[290970101002004,Do_nothing,Do_nothing]
 _r0[290970101002004,Do_nothing,Recover] _r0[290970101002004,R1,Do_nothing]
 _r0[290970101002004,R1,Recover] _r0[290970101002004,R2,Do_nothing]
 _r0[290970101002004,R2,Recover] _r0[290970101002004,R3,Do_nothing]
 _r0[290970101002004,R3,Recover] _r0[290970103001034,Do_nothing,Do_nothing]
 _r0[290970103001034,Do_nothing,Recover] _r0[290970103001034,R1,Do_nothing]
 _r0[290970103001034,R1,Recover] _r0[290970103001034,R2,Do_nothing]
 _r0[290970103001034,R2,Recover] _r0[290970103001034,R3,Do_nothing]
 _r0[290970103001034,R3,Recover] _r0[290970101004032,Do_nothing,Do_nothing]
 _r0[290970101004032,Do_nothing,Recover] _r0[290970101004032,R1,Do_nothing]
 _r0[290970101004032,R1,Recover] _r0[290970101004032,R2,Do_nothing]
 _r0[290970101004032,R2,Recover] _r0[290970101004032,R3,Do_nothing]
 _r0[290970101004032,R3,Recover] _r0[290970106006020,Do_nothing,Do_nothing]
 _r0[290970106006020,Do_nothing,Recover] _r0[290970106006020,R1,Do_nothing]
 _r0[290970106006020,R1,Recover] _r0[290970106006020,R2,Do_nothing]
 _r0[290970106006020,R2,Recover] _r0[290970106006020,R3,Do_nothing]
 _r0[290970106006020,R3,Recover] _r0[290970104001042,Do_nothing,Do_nothing]
 _r0[290970104001042,Do_nothing,Recover] _r0[290970104001042,R1,Do_nothing]
 _r0[290970104001042,R1,Recover] _r0[290970104001042,R2,Do_nothing]
 _r0[290970104001042,R2,Recover] _r0[290970104001042,R3,Do_nothing]
 _r0[290970104001042,R3,Recover]
End
